words_train/words_577_SAT.qaiger
aag 49 16 0 1 33
26
28
18
30
32
16
22
2
6
20
4
12
10
24
14
8
98
34 25 8
36 24 9
38 37 35
40 18 2
42 19 3
44 43 41
46 44 39
48 28 13
50 29 12
52 51 49
54 53 46
56 27 11
58 26 10
60 59 57
62 30 15
64 31 14
66 65 63
68 67 60
70 21 4
72 20 5
74 73 71
76 23 7
78 22 6
80 79 77
82 80 75
84 82 68
86 84 54
88 32 17
90 33 16
92 91 89
94 93 86
96 92 87
98 97 95
i0 2 y[4]
i1 2 y[5]
i2 2 y[0]
i3 2 y[6]
i4 2 y[7]
i5 1 x[7]
i6 2 y[2]
i7 1 x[0]
i8 1 x[2]
i9 2 y[1]
i10 1 x[1]
i11 1 x[5]
i12 1 x[4]
i13 2 y[3]
i14 1 x[6]
i15 1 x[3]
o0 bv[0]
c
simplified
  >=
    xor
      subtract
        unary minus
          1 x
        1
      2 y
    abs
      1
