words_train/words_577_SAT.qaiger.qdimacs
p cnf 49 100
a 1 2 3 4 5 6 7 8 0
e 9 10 11 12 13 14 15 16 17 18 19 20 21 22 23 24 25 26 27 28 29 30 31 32 33 34 35 36 37 38 39 40 41 42 43 44 45 46 47 48 49 0
12 -4 17 0
-12 -17 0
4 -17 0
-12 4 18 0
12 -18 0
-4 -18 0
18 17 19 0
-18 -19 0
-17 -19 0
-9 -1 20 0
9 -20 0
1 -20 0
9 1 21 0
-9 -21 0
-1 -21 0
21 20 22 0
-21 -22 0
-20 -22 0
-22 19 23 0
22 -23 0
-19 -23 0
-14 6 24 0
14 -24 0
-6 -24 0
14 -6 25 0
-14 -25 0
6 -25 0
25 24 26 0
-25 -26 0
-24 -26 0
26 -23 27 0
-26 -27 0
23 -27 0
13 5 28 0
-13 -28 0
-5 -28 0
-13 -5 29 0
13 -29 0
5 -29 0
29 28 30 0
-29 -30 0
-28 -30 0
-15 7 31 0
15 -31 0
-7 -31 0
15 -7 32 0
-15 -32 0
7 -32 0
32 31 33 0
-32 -33 0
-31 -33 0
33 -30 34 0
-33 -34 0
30 -34 0
10 -2 35 0
-10 -35 0
2 -35 0
-10 2 36 0
10 -36 0
-2 -36 0
36 35 37 0
-36 -37 0
-35 -37 0
11 3 38 0
-11 -38 0
-3 -38 0
-11 -3 39 0
11 -39 0
3 -39 0
39 38 40 0
-39 -40 0
-38 -40 0
-40 37 41 0
40 -41 0
-37 -41 0
-41 -34 42 0
41 -42 0
34 -42 0
-42 -27 43 0
42 -43 0
27 -43 0
-16 8 44 0
16 -44 0
-8 -44 0
16 -8 45 0
-16 -45 0
8 -45 0
45 44 46 0
-45 -46 0
-44 -46 0
46 -43 47 0
-46 -47 0
43 -47 0
-46 43 48 0
46 -48 0
-43 -48 0
48 47 49 0
-48 -49 0
-47 -49 0
49 0
